48873.23,56.57,68.6
43012.5,64.27,77.94
49787.66,55.53,67.34
47787.1,57.85,70.16
47788.53,57.85,70.16
44906.18,61.56,74.66
43291.86,63.86,77.44
54538.23,50.69,61.47
45283.07,61.05,74.04
57855.89,47.79,57.95
43158.44,64.06,77.68
47705.66,57.95,70.28
51755.14,53.42,64.78
48384.42,57.14,69.29
47838.11,57.79,70.08
52725.1,52.43,63.59
44677.77,61.88,75.04
48202.36,57.35,69.55
44019.27,62.8,76.16
44868.17,61.62,74.72
